
List of user-set options:

                                    Name   Value                used
                linear_scaling_on_demand = yes                   yes
                           linear_solver = ma86                  yes
                   linear_system_scaling = mc19                  yes
                              ma86_small = 1e-30                 yes
                                max_iter = 500                   yes
                    max_refinement_steps = 20                    yes
                    min_refinement_steps = 5                     yes
                                 mu_init = 1e-06                 yes
           mu_superlinear_decrease_power = 1.25                  yes
                   nlp_scaling_min_value = 1e-08                 yes
                        option_file_name = ./ipopt.opt           yes
                             output_file = ./tmp/ipopt_output_tmp.output  yes
                      print_user_options = yes                   yes
        required_infeasibility_reduction = 1                      no
                   warm_start_bound_frac = 1e-20                 yes
                   warm_start_bound_push = 1e-20                 yes
                   warm_start_init_point = yes                   yes
              warm_start_mult_bound_push = 1e-20                 yes
                warm_start_mult_init_max = 1e+20                 yes
             warm_start_slack_bound_frac = 1e-20                 yes
             warm_start_slack_bound_push = 1e-20                 yes

******************************************************************************
This program contains Ipopt, a library for large-scale nonlinear optimization.
 Ipopt is released as open source code under the Eclipse Public License (EPL).
         For more information visit http://projects.coin-or.org/Ipopt
******************************************************************************

This is Ipopt version 3.12.10, running with linear solver ma86.

Number of nonzeros in equality constraint Jacobian...:   117110
Number of nonzeros in inequality constraint Jacobian.:      213
Number of nonzeros in Lagrangian Hessian.............:    47392

Total number of variables............................:    29961
                     variables with only lower bounds:    11312
                variables with lower and upper bounds:    15122
                     variables with only upper bounds:        0
Total number of equality constraints.................:    29863
Total number of inequality constraints...............:       25
        inequality constraints with only lower bounds:        4
   inequality constraints with lower and upper bounds:        0
        inequality constraints with only upper bounds:       21

iter    objective    inf_pr   inf_du lg(mu)  ||d||  lg(rg) alpha_du alpha_pr  ls
   0 -1.2452496e-01 1.49e-04 2.05e-03  -6.0 0.00e+00    -  0.00e+00 0.00e+00   0
   1 -1.2452496e-01 1.49e-04 1.66e+00  -6.0 6.65e+02    -  7.28e-03 2.94e-08f 17
   2 -1.2453305e-01 1.55e-03 1.95e+00  -6.0 6.67e+02    -  2.95e-03 1.41e-02f  1
   3 -1.2454694e-01 6.26e-03 1.90e+00  -6.0 6.51e+02    -  2.58e-02 2.52e-02f  1
   4 -1.2458090e-01 3.48e-02 1.60e+01  -6.0 6.39e+02    -  1.36e-01 6.35e-02f  1
   5 -1.2475436e-01 8.39e-01 2.32e+01  -6.0 6.02e+02    -  2.00e-01 3.58e-01f  1
   6 -1.2480504e-01 8.24e-01 9.76e+00  -6.0 5.45e+02    -  2.19e-01 1.43e-01h  1
   7 -1.2456055e-01 8.65e+01 6.21e+01  -6.0 1.28e+04    -  1.63e-01 1.72e-01f  1
   8 -1.2477661e-01 8.28e+01 4.00e+01  -6.0 5.46e+03    -  1.57e-01 3.47e-01H  1
   9 -1.2478081e-01 7.92e+01 3.13e+02  -6.0 6.14e+00  -4.0 1.84e-03 4.38e-02h  1
iter    objective    inf_pr   inf_du lg(mu)  ||d||  lg(rg) alpha_du alpha_pr  ls
  10 -1.2473356e-01 7.51e+01 3.37e+02  -6.0 4.29e+03    -  2.16e-01 7.17e-02h  1
  11 -1.2439084e-01 1.54e+02 1.72e+02  -6.0 3.10e+03    -  1.60e-01 1.00e+00h  1
  12 -1.2444818e-01 1.74e+01 5.46e+01  -6.0 2.49e+02    -  5.61e-01 8.87e-01h  1
  13 -1.2450697e-01 6.51e+00 2.86e+01  -6.0 6.31e+02    -  9.04e-01 8.52e-01h  1
  14 -1.2463551e-01 9.99e+00 1.23e+03  -6.0 4.51e+03    -  8.92e-01 1.22e-01h  2
  15 -1.2478142e-01 2.91e+00 1.44e+02  -6.0 3.29e+02    -  6.40e-01 8.03e-01h  1
  16 -1.2486157e-01 6.59e+00 2.34e+03  -6.0 1.06e+03    -  1.00e+00 5.80e-01h  1
  17 -1.2489722e-01 1.49e+01 4.21e+02  -6.0 1.87e+03    -  4.25e-01 4.86e-01h  1
  18 -1.2487732e-01 2.35e+01 1.36e+02  -6.0 3.12e+03    -  3.19e-01 3.22e-01h  1
  19 -1.2486606e-01 2.29e+01 1.14e+04  -6.0 4.25e+03    -  3.11e-01 4.87e-02h  1
iter    objective    inf_pr   inf_du lg(mu)  ||d||  lg(rg) alpha_du alpha_pr  ls
  20 -1.2481885e-01 2.25e+01 9.07e+03  -6.0 9.41e+03    -  1.54e-02 4.94e-02h  1
  21 -1.2477257e-01 2.20e+01 1.90e+05  -6.0 4.59e+03  -4.5 5.10e-07 4.72e-02h  1
  22 -1.2478086e-01 2.09e+01 2.36e+05  -6.0 1.10e+01  -5.0 2.14e-02 5.15e-02h  1
  23 -1.2473548e-01 1.97e-03 2.49e+03  -6.0 8.39e+00  -5.4 5.35e-02 1.00e+00h  1
  24 -1.2476850e-01 1.25e-04 1.85e+00  -6.0 8.23e-01  -5.0 1.00e+00 1.00e+00h  1
  25 -1.2480067e-01 3.32e-04 5.08e-01  -6.0 1.14e+00  -5.5 9.09e-01 1.00e+00h  1
  26 -1.2485780e-01 1.63e-03 6.68e-02  -6.0 2.72e+00  -6.0 1.00e+00 1.00e+00h  1
  27 -1.2492065e-01 3.22e-03 1.28e-01  -6.0 4.16e+00  -6.4 1.00e+00 1.00e+00h  1
  28 -1.2497642e-01 3.63e-03 1.29e-01  -6.0 4.72e+00  -6.9 1.00e+00 1.00e+00h  1
  29 -1.2502110e-01 3.95e-03 9.88e-02  -6.0 1.24e+01  -7.4 1.00e+00 1.00e+00h  1
iter    objective    inf_pr   inf_du lg(mu)  ||d||  lg(rg) alpha_du alpha_pr  ls
  30 -1.2507458e-01 1.00e-02 1.10e+00  -6.0 2.72e+01  -7.9 1.00e+00 8.24e-01h  1
  31 -1.2518996e-01 1.57e-02 2.02e+00  -6.0 3.16e+01  -8.3 8.10e-01 9.14e-01f  1
  32 -1.2526237e-01 1.00e-01 2.44e+00  -6.0 8.41e+01  -8.8 9.27e-01 8.77e-01f  1
  33 -1.2529198e-01 1.73e-01 9.22e+00  -6.0 1.17e+02  -9.3 7.86e-01 1.00e+00h  1
  34 -1.2536731e-01 1.39e-01 3.95e+00  -6.0 3.54e+01  -8.0 2.17e-01 1.92e-01h  1
  35 -1.2545527e-01 2.76e-02 1.15e+00  -6.0 3.93e+01  -8.4 1.00e+00 1.00e+00h  1
  36 -1.2550694e-01 3.25e-02 1.38e+02  -6.0 1.62e+02  -8.9 1.99e-01 1.36e-01h  1
  37 -1.2559818e-01 8.21e-01 3.00e+01  -6.0 2.56e+02  -9.4 1.00e+00 1.00e+00h  1
  38 -1.2565352e-01 7.03e-01 3.07e+02  -6.0 1.48e+02  -9.0 1.73e-01 1.51e-01h  1
  39 -1.2557048e-01 1.51e+00 1.40e+05  -6.0 6.64e+02  -9.5 1.82e-02 4.53e-01h  1
iter    objective    inf_pr   inf_du lg(mu)  ||d||  lg(rg) alpha_du alpha_pr  ls
  40 -1.2553148e-01 1.40e+01 4.29e+04  -6.0 1.53e+03    -  5.91e-03 6.91e-01h  1
  41 -1.2560176e-01 1.12e+01 3.29e+04  -6.0 8.12e+02    -  6.41e-01 2.33e-01h  1
  42 -1.2563958e-01 8.45e+00 2.49e+04  -6.0 7.48e+01    -  5.27e-01 2.43e-01h  1
  43 -1.2569445e-01 9.60e-01 2.61e+03  -6.0 1.09e+02    -  1.00e+00 8.98e-01h  1
  44 -1.2577689e-01 6.05e-01 1.51e+03  -6.0 1.57e+02    -  5.29e-01 4.23e-01h  1
  45 -1.2575933e-01 8.11e-01 1.47e+03  -6.0 2.00e+03    -  2.49e-01 3.06e-02h  1
  46 -1.2577949e-01 1.35e+00 3.78e+01  -6.0 2.39e+02    -  5.75e-01 1.00e+00h  1
  47 -1.2572981e-01 7.56e-01 5.15e+01  -6.0 6.51e+02  -9.0 2.40e-01 2.06e-01h  1
  48 -1.2580284e-01 6.82e-01 5.29e+01  -6.0 6.38e+02  -9.5 7.27e-03 1.30e-01h  1
  49 -1.2588481e-01 2.91e-01 6.93e+01  -6.0 1.44e+02    -  8.58e-01 5.92e-01h  1
iter    objective    inf_pr   inf_du lg(mu)  ||d||  lg(rg) alpha_du alpha_pr  ls
  50 -1.2597786e-01 1.70e-01 2.17e+02  -6.0 1.74e+02    -  7.86e-01 4.35e-01h  1
  51 -1.2619902e-01 3.13e-01 2.53e+02  -6.0 5.90e+01    -  6.84e-01 1.00e+00h  1
  52 -1.2641360e-01 6.72e-01 7.48e+01  -6.0 8.49e+01    -  8.20e-01 7.85e-01h  1
  53 -1.2675226e-01 3.60e+00 1.49e+03  -6.0 4.29e+02    -  3.91e-01 9.08e-01h  1
  54 -1.2680951e-01 2.81e+00 2.96e+02  -6.0 3.71e+02    -  1.12e-01 2.29e-01h  1
  55 -1.2665715e-01 7.56e-01 6.51e+05  -6.0 2.06e+02    -  6.86e-03 1.00e+00h  1
  56 -1.2667213e-01 2.52e-01 2.16e+05  -6.0 4.91e+01    -  1.00e+00 6.68e-01h  1
  57 -1.2665018e-01 1.38e-03 2.21e+02  -6.0 6.65e+00    -  8.86e-02 1.00e+00f  1
  58 -1.2666412e-01 2.33e-03 6.32e+00  -6.0 2.37e+00  -6.4 4.14e-01 1.00e+00h  1
  59 -1.2672515e-01 1.13e-02 2.70e+00  -6.0 9.98e+02    -  2.39e-02 1.62e-02h  1
iter    objective    inf_pr   inf_du lg(mu)  ||d||  lg(rg) alpha_du alpha_pr  ls
  60 -1.2674707e-01 2.93e-02 6.22e+00  -6.0 4.55e+01    -  2.83e-01 8.88e-01f  1
  61 -1.2678578e-01 3.55e-03 3.71e+00  -6.0 4.03e+00  -6.8 6.83e-01 1.00e+00f  1
  62 -1.2678583e-01 3.58e-03 5.17e+00  -6.0 6.13e+01    -  1.00e+00 1.11e-01h  2
  63 -1.2676741e-01 1.61e-03 9.57e-02  -6.0 7.60e+00    -  1.00e+00 1.00e+00h  1
  64 -1.2676514e-01 1.95e-04 3.16e-04  -6.0 3.30e+00    -  1.00e+00 1.00e+00h  1
  65 -1.2676523e-01 3.89e-07 1.30e-06  -6.0 1.47e-01    -  1.00e+00 1.00e+00h  1
  66 -1.2701280e-01 1.68e+00 5.55e+01  -7.5 4.34e+02    -  2.83e-01 3.74e-01h  1
  67 -1.2719605e-01 2.46e+00 8.52e+01  -7.5 1.13e+03    -  6.84e-02 2.91e-01h  1
  68 -1.2723718e-01 1.94e+00 8.91e+01  -7.5 1.21e+03    -  2.04e-03 8.31e-02h  1
  69 -1.2724897e-01 1.88e+00 7.68e+01  -7.5 2.32e+03    -  9.62e-02 1.76e-02h  1
iter    objective    inf_pr   inf_du lg(mu)  ||d||  lg(rg) alpha_du alpha_pr  ls
  70 -1.2735210e-01 2.50e+00 7.56e+01  -7.5 1.54e+03    -  9.60e-02 2.14e-01f  1
  71 -1.2738951e-01 2.73e+00 4.74e+01  -7.5 3.27e+03    -  2.69e-01 5.29e-02h  1
  72 -1.2758251e-01 1.21e+01 2.77e+01  -7.5 2.28e+03    -  5.18e-01 4.06e-01h  1
  73 -1.2761888e-01 1.22e+01 2.70e+01  -7.5 3.92e+03    -  1.37e-03 6.78e-02h  1
  74 -1.2786643e-01 5.40e+01 4.28e+01  -7.5 4.15e+03    -  3.01e-01 4.64e-01h  1
  75 -1.2787167e-01 5.36e+01 4.30e+01  -7.5 7.82e+03    -  4.16e-05 8.18e-03h  1
  76 -1.2797900e-01 6.84e+01 7.87e+01  -7.5 6.73e+03    -  1.17e-02 2.01e-01h  1
  77 -1.2797556e-01 6.51e+01 1.19e+02  -7.5 1.43e+03    -  4.41e-03 4.82e-02h  1
  78 -1.2798337e-01 6.32e+01 1.15e+02  -7.5 3.12e+03    -  4.06e-02 3.21e-02h  1
  79 -1.2811499e-01 5.69e+01 4.55e+02  -7.5 2.09e+03    -  3.57e-02 8.20e-01h  1
iter    objective    inf_pr   inf_du lg(mu)  ||d||  lg(rg) alpha_du alpha_pr  ls
  80 -1.2811884e-01 5.48e+01 4.39e+02  -7.5 2.09e+03    -  2.04e-01 3.90e-02h  1
  81 -1.2814836e-01 4.32e+01 2.70e+02  -7.5 1.89e+03    -  5.39e-01 3.32e-01h  1
  82 -1.2814841e-01 4.32e+01 2.71e+02  -7.5 1.85e+03    -  2.64e-01 7.48e-04h  1
  83 -1.2813166e-01 4.61e+00 5.60e+02  -7.5 5.73e+02    -  4.54e-02 1.00e+00h  1
  84 -1.2813681e-01 4.33e+00 1.54e+03  -7.5 9.47e+01    -  5.51e-01 6.08e-02h  1
  85 -1.2821748e-01 6.29e-01 9.11e+01  -7.5 8.92e+01    -  9.85e-01 1.00e+00h  1
  86 -1.2823046e-01 5.90e-01 3.89e+03  -7.5 1.26e+03    -  1.77e-01 6.42e-02h  1
  87 -1.2823521e-01 5.79e-01 3.37e+03  -7.5 1.57e+03    -  5.15e-02 1.88e-02h  1
  88 -1.2824344e-01 4.96e-01 3.40e+03  -7.5 5.61e+02    -  1.36e-03 1.47e-01h  1
  89 -1.2822297e-01 5.44e-03 1.59e+01  -7.5 1.86e+01    -  2.01e-01 1.00e+00h  1
iter    objective    inf_pr   inf_du lg(mu)  ||d||  lg(rg) alpha_du alpha_pr  ls
  90 -1.2822319e-01 5.38e-05 1.17e+00  -7.5 1.72e+00    -  5.28e-01 1.00e+00h  1
  91 -1.2822837e-01 1.80e-02 1.45e+00  -7.5 3.09e+01    -  7.63e-02 1.00e+00h  1
  92 -1.2823323e-01 1.55e-03 1.10e+00  -7.5 4.02e+00  -7.3 4.17e-01 1.00e+00h  1
  93 -1.2824469e-01 1.28e-02 3.52e-01  -7.5 2.18e+01  -7.8 6.53e-01 8.17e-01h  1
  94 -1.2824270e-01 1.25e-02 3.44e-01  -7.5 7.83e+01    -  1.13e-03 3.77e-02h  4
  95 -1.2825388e-01 3.87e-03 2.46e-03  -7.5 9.34e+00  -7.4 1.00e+00 1.00e+00h  1
  96 -1.2826827e-01 1.03e-02 6.69e-01  -7.5 1.30e+02  -7.9 9.75e-03 9.55e-02h  1
  97 -1.2827023e-01 1.01e-02 5.85e+00  -7.5 1.34e+03    -  2.11e-01 1.25e-02h  1
  98 -1.2827842e-01 1.28e-02 1.84e+01  -7.5 1.46e+02    -  5.75e-01 1.77e-01f  1
  99 -1.2830953e-01 1.36e-01 1.84e+01  -7.5 1.34e+02    -  1.00e+00 6.36e-01h  1
iter    objective    inf_pr   inf_du lg(mu)  ||d||  lg(rg) alpha_du alpha_pr  ls
 100 -1.2833270e-01 9.47e-02 3.43e+01  -7.5 7.72e+01    -  7.63e-01 5.05e-01h  1
 101 -1.2838561e-01 7.48e-02 1.76e-02  -7.5 6.72e+01    -  1.00e+00 1.00e+00h  1
 102 -1.2840209e-01 6.76e-02 1.83e+02  -7.5 1.25e+02    -  4.58e-01 2.23e-01h  1
 103 -1.2845178e-01 5.91e-02 3.55e+02  -7.5 7.14e+01    -  1.00e+00 6.35e-01h  1
 104 -1.2849297e-01 6.10e-02 1.65e+02  -7.5 8.54e+01    -  4.75e-01 4.84e-01h  1
 105 -1.2857732e-01 2.28e-01 1.73e+03  -7.5 1.12e+02    -  9.03e-02 1.00e+00h  1
 106 -1.2859016e-01 2.12e-01 1.60e+03  -7.5 2.68e+02    -  1.74e-02 7.75e-02h  1
 107 -1.2858579e-01 2.06e-01 1.79e+05  -7.5 7.83e+02    -  3.92e-04 3.05e-02h  4
 108 -1.2862539e-01 3.62e-01 7.45e+02  -7.5 1.52e+02    -  8.26e-02 1.00e+00h  1
 109 -1.2865287e-01 1.01e-01 4.15e+00  -7.5 7.97e+01    -  1.00e+00 1.00e+00h  1
iter    objective    inf_pr   inf_du lg(mu)  ||d||  lg(rg) alpha_du alpha_pr  ls
 110 -1.2867759e-01 9.69e-02 4.01e+00  -7.5 1.15e+02  -8.3 5.28e-02 4.01e-02h  1
 111 -1.2867764e-01 9.69e-02 7.66e+00  -7.5 2.17e+03    -  1.00e+00 1.09e-03h  1
 112 -1.2873550e-01 2.94e-01 5.11e-01  -7.5 1.36e+02    -  6.88e-01 1.00e+00f  1
 113 -1.2876261e-01 1.87e-01 2.06e+01  -7.5 3.96e+01    -  1.00e+00 3.67e-01h  1
 114 -1.2884006e-01 3.03e-02 8.44e+00  -7.5 4.09e+01    -  6.91e-01 1.00e+00h  1
 115 -1.2887265e-01 2.42e-02 4.28e+01  -7.5 4.50e+01    -  6.61e-01 3.52e-01h  1
 116 -1.2896561e-01 3.61e-02 4.46e-01  -7.5 4.66e+01    -  1.00e+00 1.00e+00h  1
 117 -1.2901197e-01 4.31e-01 3.81e+01  -7.5 3.16e+02    -  4.31e-01 5.10e-01h  1
 118 -1.2909749e-01 4.19e+00 5.61e+00  -7.5 5.11e+02    -  1.00e+00 1.00e+00h  1
 119 -1.2915173e-01 2.44e+01 3.59e+02  -7.5 1.39e+03    -  3.86e-01 8.69e-01h  1
iter    objective    inf_pr   inf_du lg(mu)  ||d||  lg(rg) alpha_du alpha_pr  ls
 120 -1.2915519e-01 2.40e+01 1.49e+03  -7.5 3.24e+03    -  4.74e-01 1.13e-01h  3
 121 -1.2915270e-01 2.39e+01 1.72e+02  -7.5 6.18e+03    -  1.21e-01 2.76e-02h  4
 122 -1.2915551e-01 2.32e+01 1.31e+03  -7.5 2.91e+03    -  4.26e-01 1.26e-01h  3
 123 -1.2914636e-01 6.02e+00 2.57e+00  -7.5 5.91e+02    -  1.00e+00 1.00e+00h  1
 124 -1.2914649e-01 1.77e+00 4.71e+00  -7.5 1.15e+02    -  1.00e+00 7.25e-01h  1
 125 -1.2914512e-01 4.49e-01 5.31e-02  -7.5 1.58e+02    -  1.00e+00 1.00e+00h  1
 126 -1.2914765e-01 8.75e-01 9.66e-02  -7.5 2.19e+02    -  1.00e+00 1.00e+00h  1
 127 -1.2914739e-01 8.22e-01 1.52e-01  -7.5 3.29e+02    -  1.00e+00 7.27e-02h  2
 128 -1.2914631e-01 3.91e-01 1.36e-02  -7.5 8.68e+01    -  1.00e+00 1.00e+00h  1
 129 -1.2914667e-01 2.26e-02 7.81e-03  -7.5 3.53e+01    -  4.30e-01 1.00e+00h  1
iter    objective    inf_pr   inf_du lg(mu)  ||d||  lg(rg) alpha_du alpha_pr  ls
 130 -1.2914699e-01 2.97e-02 1.77e-03  -7.5 2.90e+01    -  1.00e+00 1.00e+00h  1
 131 -1.2914805e-01 1.12e+00 2.19e-02  -7.5 1.99e+02    -  6.48e-01 5.00e-01h  2
 132 -1.2914858e-01 2.27e-01 7.33e-03  -7.5 5.80e+01    -  6.10e-01 1.00e+00h  1
 133 -1.2914790e-01 3.07e-01 1.09e-02  -7.5 7.08e+01    -  1.00e+00 1.00e+00h  1
 134 -1.2914815e-01 1.94e-01 1.20e-02  -7.5 5.17e+01    -  1.00e+00 5.00e-01h  2
 135 -1.2914828e-01 1.36e-02 4.37e-04  -7.5 1.41e+01    -  1.00e+00 1.00e+00h  1
 136 -1.2914827e-01 6.78e-05 1.39e-06  -7.5 7.78e-01    -  1.00e+00 1.00e+00h  1
 137 -1.2914827e-01 5.55e-08 1.12e-09  -7.5 2.27e-02    -  1.00e+00 1.00e+00h  1
 138 -1.2915550e-01 8.90e+00 8.11e+00  -9.0 5.96e+02    -  1.25e-01 9.21e-01h  1
 139 -1.2915449e-01 6.74e-02 6.59e+00  -9.0 4.96e+01    -  1.84e-01 1.00e+00h  1
iter    objective    inf_pr   inf_du lg(mu)  ||d||  lg(rg) alpha_du alpha_pr  ls
 140 -1.2915551e-01 5.60e-01 4.10e+00  -9.0 1.37e+02    -  3.71e-01 1.00e+00h  1
 141 -1.2915553e-01 1.75e-04 3.25e-04  -9.0 3.15e+00  -8.8 1.00e+00 1.00e+00h  1
 142 -1.2915559e-01 1.50e-03 2.32e-05  -9.0 7.84e+00  -9.3 1.00e+00 1.00e+00h  1
 143 -1.2915577e-01 1.18e-02 8.84e-05  -9.0 2.36e+01  -9.8 1.00e+00 1.00e+00h  1
 144 -1.2915633e-01 7.82e-02 8.26e-04  -9.0 7.15e+01 -10.2 1.00e+00 1.00e+00h  1
 145 -1.2915810e-01 7.74e-01 8.80e-03  -9.0 2.27e+02 -10.7 1.00e+00 1.00e+00h  1
 146 -1.2916708e-01 1.76e+01 2.33e-01  -9.0 1.08e+03 -11.2 1.00e+00 1.00e+00h  1
 147 -1.2919459e-01 3.56e+01 7.86e-01  -9.0 1.54e+03 -10.8 1.28e-01 9.57e-01h  1
 148 -1.2922082e-01 3.52e+01 8.00e-01  -9.0 1.39e+03  -7.6 1.08e-03 1.20e-02h  1
 149 -1.2922380e-01 3.44e+01 7.81e-01  -9.0 1.31e+01  -6.3 6.57e-01 2.33e-02h  1
iter    objective    inf_pr   inf_du lg(mu)  ||d||  lg(rg) alpha_du alpha_pr  ls
 150 -1.2926952e-01 2.54e+01 5.60e-01  -9.0 2.17e+01  -6.8 1.31e-03 2.62e-01h  1
 151 -1.2931494e-01 2.39e+01 5.26e-01  -9.0 7.58e+01  -6.4 1.01e-02 5.88e-02h  1
 152 -1.2945042e-01 4.27e+00 3.08e-01  -9.0 8.44e+00  -5.9 2.24e-01 8.21e-01h  1
 153 -1.2945593e-01 4.27e+00 3.07e-01  -9.0 4.57e+02  -6.4 6.78e-03 5.60e-04h  1
 154 -1.2948506e-01 3.95e+00 6.74e-01  -9.0 1.93e+01  -6.9 7.66e-01 7.50e-02h  1
 155 -1.2948937e-01 3.92e+00 9.62e-01  -9.0 2.90e+01  -7.4 5.49e-01 7.73e-03h  1
 156 -1.2954510e-01 3.82e+00 1.01e+00  -9.0 5.00e+02  -7.8 3.25e-02 2.46e-02h  1
 157 -1.2955861e-01 3.73e+00 1.34e+00  -9.0 7.69e+01  -8.3 6.94e-05 2.53e-02h  1
 158 -1.2970742e-01 1.92e+00 7.62e-01  -9.0 5.97e+01  -8.8 1.00e+00 4.84e-01h  1
 159 -1.2975357e-01 8.93e-01 7.96e-01  -9.0 2.15e+02  -9.3 9.49e-01 7.69e-01h  1
iter    objective    inf_pr   inf_du lg(mu)  ||d||  lg(rg) alpha_du alpha_pr  ls
 160 -1.2974062e-01 5.61e-01 1.86e-01  -9.0 2.07e+02  -9.7 1.00e+00 8.07e-01h  1
 161 -1.2976685e-01 5.95e+00 1.12e+00  -9.0 5.91e+02 -10.2 1.00e+00 1.00e+00h  1
 162 -1.2984763e-01 5.46e+01 6.47e+00  -9.0 4.39e+03 -10.7 3.77e-01 3.89e-01h  1
 163 -1.2984264e-01 4.08e+01 1.03e+03  -9.0 6.25e+02    -  1.00e+00 2.60e-01h  1
 164 -1.2985191e-01 6.13e-01 4.62e+03  -9.0 1.52e+02    -  9.29e-04 1.00e+00h  1
 165 -1.2985873e-01 8.06e-01 1.88e+00  -9.0 8.63e+01    -  9.99e-01 1.00e+00h  1
 166 -1.2993887e-01 1.98e+01 5.43e+00  -9.0 2.05e+03 -10.3 1.86e-02 4.96e-01h  1
 167 -1.2990656e-01 3.81e+01 2.30e+02  -9.0 2.00e+03    -  2.35e-01 1.00e+00H  1
 168 -1.3002349e-01 1.90e+01 2.05e+02  -9.0 1.46e+04    -  8.13e-03 1.09e-01h  1
 169 -1.2989575e-01 1.51e+01 1.02e+02  -9.0 1.35e+03    -  2.60e-01 5.00e-01h  2
iter    objective    inf_pr   inf_du lg(mu)  ||d||  lg(rg) alpha_du alpha_pr  ls
 170 -1.3007763e-01 5.00e+01 4.57e+01  -9.0 2.69e+03  -9.8 2.59e-01 5.53e-01H  1
 171 -1.3004710e-01 4.78e+01 2.54e+02  -9.0 2.74e+03    -  1.13e-06 5.49e-02h  4
 172 -1.3034976e-01 2.19e+01 3.10e+00  -9.0 9.75e+02  -9.4 6.42e-01 1.00e+00h  1
 173 -1.3040165e-01 2.13e+01 3.14e+00  -9.0 2.27e+03  -9.0 1.07e-01 3.20e-02h  1
 174 -1.3040498e-01 2.13e+01 1.37e+01  -9.0 4.73e+03    -  4.64e-04 9.58e-04h  1
 175 -1.3040669e-01 2.13e+01 3.38e+03  -9.0 9.02e+03    -  7.03e-02 2.65e-04h  1
 176 -1.3056110e-01 1.31e+01 1.59e+03  -9.0 4.56e+02  -8.6 5.49e-01 4.29e-01h  1
 177 -1.3057186e-01 1.24e+01 1.68e+03  -9.0 9.49e+01    -  1.52e-01 5.34e-02h  1
 178 -1.3060258e-01 1.05e+01 1.19e+03  -9.0 5.03e+01    -  6.18e-02 1.48e-01h  1
 179 -1.3060287e-01 1.05e+01 1.99e+03  -9.0 5.00e+01    -  2.06e-01 1.41e-03h  1
iter    objective    inf_pr   inf_du lg(mu)  ||d||  lg(rg) alpha_du alpha_pr  ls
 180 -1.3081383e-01 4.16e-02 2.85e+03  -9.0 4.80e+01    -  1.23e-01 1.00e+00f  1
 181 -1.3081460e-01 4.14e-02 4.05e+03  -9.0 1.84e+02    -  3.26e-01 2.91e-03h  1
 182 -1.3091854e-01 1.18e-01 1.13e+04  -9.0 1.82e+02    -  1.00e+00 3.91e-01f  1
 183 -1.3096930e-01 1.17e-01 1.43e+04  -9.0 1.98e+02    -  2.25e-01 1.25e-01h  1
 184 -1.3096930e-01 1.17e-01 1.64e+04  -9.0 1.78e+04    -  4.53e-05 4.81e-05h  8
 185 -1.3111376e-01 4.35e-02 5.23e+02  -9.0 4.31e+01    -  1.00e+00 9.76e-01h  1
 186 -1.3116114e-01 2.40e-02 2.00e+03  -9.0 2.40e+01    -  4.20e-01 5.35e-01h  1
 187 -1.3122803e-01 6.03e-02 4.81e+02  -9.0 5.13e+01    -  9.33e-01 1.00e+00f  1
 188 -1.3124036e-01 5.43e-01 4.52e+00  -9.0 1.54e+02    -  5.24e-01 1.00e+00h  1
 189 -1.3123275e-01 5.13e-01 3.39e+00  -9.0 2.73e+02    -  2.34e-01 2.50e-01h  3
iter    objective    inf_pr   inf_du lg(mu)  ||d||  lg(rg) alpha_du alpha_pr  ls
 190 -1.3123019e-01 3.05e-01 3.29e+00  -9.0 9.21e+01    -  1.00e+00 5.00e-01h  2
 191 -1.3122130e-01 2.30e-03 3.82e+00  -9.0 1.04e+01    -  5.51e-01 1.00e+00h  1
 192 -1.3122143e-01 5.16e-03 2.74e-03  -9.0 1.51e+01    -  1.00e+00 1.00e+00h  1
 193 -1.3122132e-01 1.65e-05 5.83e-06  -9.0 8.48e-01    -  1.00e+00 1.00e+00h  1
 194 -1.3122132e-01 3.05e-10 1.91e-10  -9.0 3.08e-03    -  1.00e+00 1.00e+00h  1

Number of Iterations....: 194

                                   (scaled)                 (unscaled)
Objective...............:  -1.3122131916966384e-01   -1.3122131916966384e-01
Dual infeasibility......:   1.9116797034257615e-10    1.9116797034257615e-10
Constraint violation....:   3.0548428641297837e-10    3.0548428641297837e-10
Complementarity.........:   9.0909091868315770e-10    9.0909091868315770e-10
Overall NLP error.......:   9.0909091868315770e-10    9.0909091868315770e-10


Number of objective function evaluations             = 275
Number of objective gradient evaluations             = 195
Number of equality constraint evaluations            = 275
Number of inequality constraint evaluations          = 275
Number of equality constraint Jacobian evaluations   = 195
Number of inequality constraint Jacobian evaluations = 195
Number of Lagrangian Hessian evaluations             = 194
Total CPU secs in IPOPT (w/o function evaluations)   =    132.297
Total CPU secs in NLP function evaluations           =      3.136

EXIT: Optimal Solution Found.
